50

100 24 300
99 16 299
94 7 287
92 21 292
92 17 279
92 7 289
89 18 270
88 3 272
85 2 285
83 13 295
83 10 297
80 7 253
79 21 245
79 3 256
79 23 291
79 11 245
77 5 284
74 6 240
74 17 295
73 14 278
71 9 298
70 12 251
69 11 269
68 21 246
65 9 267
62 11 261
62 19 245
62 13 295
61 7 272
61 11 230
58 7 245
56 2 246
56 4 193
55 8 168
55 14 181
55 11 171
48 12 294
47 6 238
46 5 299
46 1 221
44 6 281
43 7 194
43 7 284
43 4 245
40 1 182
40 2 179
36 3 133
35 2 159
32 8 180
30 1 297
